NAME : XML100_2274_15
DIMENSION : 101
NB_CLUSTERS : 3
CLUSTERING_ALG : DBSCAN
CLUSTERING_PARAMS : eps(89), minSamples(3)
CLUSTERS
1 0
2 1 2 3 6 7 8 9 10 11 12 13 14 15 16 17 18 19 21 22 24 25 26 27 29 30 31 32 33 34 35 36 37 38 39 40 41 42 44 45 46 48 49 50 51 52 53 54 56 57 59 60 61 62 65 66 67 68 69 70 71 73 74 75 76 77 78 79 80 81 82 83 84 85 86 87 88 89 91 92 93 94 95 97 98 100
3 4 5 20 23 28 43 47 55 58 63 64 72 90 96 99
EOF